20
40
0 1 3.82 24.18
0 2 3.6 23.5
0 3 3.78 23.73
0 4 3.68 24.28
0 5 3.9 23.6
0 6 3.78 24.59
0 7 3.63 22.8
0 8 3.65 23.21
0 9 3.77 23.4
0 10 3.88 24.5
0 11 5.18 3.0
0 12 3.72 23.0
0 13 3.56 22.8
0 14 3.67 23.2
0 15 3.66 23.2
0 16 3.58 23.08
0 17 3.67 23.8
0 18 3.79 24.49
0 19 3.68 23.3
1 2 3.77 22.83
1 3 3.57 23.26
1 4 3.86 24.24
1 5 3.66 23.11
1 6 3.63 22.9
1 7 3.66 23.05
1 8 3.51 23.6
1 9 3.88 22.9
1 10 3.69 24.36
1 11 3.67 24.35
1 12 3.78 24.3
1 13 4.55 2.53
1 14 3.62 23.78
1 15 3.59 24.48
1 16 3.66 24.24
1 17 3.88 23.0
1 18 3.59 24.36
1 19 3.71 24.2
2 3 3.89 24.3
2 4 3.7 24.02
2 5 3.6 24.5
2 6 3.84 24.27
2 7 3.6 23.69
2 8 3.6 23.4
2 9 3.51 22.77
2 10 3.58 24.7
2 11 3.56 24.7
2 12 3.87 23.56
2 13 3.6 24.1
2 14 5.08 2.4
2 15 3.74 23.1
2 16 3.8 22.7
2 17 3.65 24.1
2 18 3.69 24.3
2 19 3.56 24.6
3 4 3.59 23.4
3 5 3.54 24.41
3 6 3.66 23.4
3 7 3.68 24.34
3 8 3.8 23.4
3 9 3.77 24.54
3 10 3.62 23.2
3 11 3.69 23.5
3 12 5.11 2.3
3 13 3.87 23.85
3 14 3.81 23.6
3 15 3.61 24.0
3 16 3.88 24.2
3 17 3.72 22.8
3 18 3.53 22.8
3 19 3.75 23.4
4 5 3.54 23.28
4 6 3.71 23.2
4 7 3.69 22.8
4 8 3.62 23.3
4 9 3.86 24.05
4 10 5.58 3.1
4 11 3.7 23.82
4 12 3.73 23.09
4 13 3.52 23.6
4 14 3.58 23.8
4 15 3.71 24.5
4 16 3.52 23.1
4 17 3.65 23.2
4 18 3.89 24.2
4 19 3.84 23.5
5 6 3.81 22.8
5 7 3.83 23.9
5 8 4.53 1.38
5 9 3.79 23.1
5 10 3.66 24.65
5 11 3.58 23.3
5 12 3.83 24.3
5 13 3.74 23.4
5 14 3.52 23.61
5 15 5.41 1.4
5 16 3.74 24.1
5 17 3.57 23.4
5 18 3.62 24.5
5 19 3.55 22.8
6 7 4.51 0.3
6 8 3.86 24.09
6 9 3.61 23.0
6 10 3.7 23.9
6 11 3.58 24.56
6 12 3.89 24.5
6 13 3.89 23.9
6 14 3.61 22.74
6 15 3.78 23.63
6 16 5.77 1.4
6 17 3.57 23.6
6 18 3.75 23.48
6 19 3.61 22.7
7 8 3.58 23.3
7 9 3.61 23.9
7 10 3.67 23.15
7 11 3.62 23.6
7 12 3.6 24.5
7 13 3.77 24.36
7 14 3.72 22.99
7 15 3.85 23.3
7 16 5.55 1.38
7 17 3.63 24.22
7 18 3.81 23.76
7 19 3.89 22.79
8 9 3.51 23.2
8 10 3.68 24.31
8 11 3.76 23.5
8 12 3.89 23.4
8 13 3.67 23.4
8 14 3.86 23.0
8 15 4.46 1.38
8 16 3.8 24.1
8 17 3.59 23.6
8 18 3.69 22.7
8 19 3.58 23.9
9 10 3.54 22.97
9 11 3.83 24.24
9 12 3.77 24.3
9 13 3.74 24.25
9 14 3.84 24.3
9 15 3.53 22.78
9 16 3.66 23.1
9 17 3.55 24.5
9 18 3.67 24.19
9 19 4.34 3.1
10 11 3.74 23.3
10 12 3.86 23.38
10 13 3.82 23.09
10 14 3.87 23.53
10 15 3.53 24.5
10 16 3.73 23.95
10 17 3.8 23.5
10 18 3.73 23.5
10 19 3.7 23.4
11 12 3.54 22.9
11 13 3.72 23.7
11 14 3.64 23.2
11 15 3.66 24.2
11 16 3.89 23.16
11 17 3.75 23.1
11 18 3.85 22.76
11 19 3.66 24.62
12 13 3.54 24.3
12 14 3.89 23.2
12 15 3.67 24.24
12 16 3.85 24.07
12 17 3.79 22.9
12 18 3.52 24.5
12 19 3.52 24.0
13 14 3.52 23.56
13 15 3.81 23.71
13 16 3.67 24.1
13 17 3.69 23.06
13 18 3.66 24.0
13 19 3.79 24.1
14 15 3.83 22.86
14 16 3.58 23.0
14 17 3.56 22.8
14 18 3.66 24.2
14 19 3.73 22.9
15 16 3.89 22.79
15 17 3.84 23.45
15 18 3.52 22.93
15 19 3.87 23.19
16 17 3.59 24.19
16 18 3.53 24.06
16 19 3.7 24.43
17 18 4.7 2.91
17 19 3.56 23.93
18 19 3.73 23.15